p cnf 54 201
-1 -2 -3 0
1 2 -3 0
-1 2 3 0
1 -2 3 0
-5 -3 0
-5 4 0
3 -4 5 0
6 5 0
6 -2 0
-5 2 -6 0
-7 3 -8 0
7 -3 -8 0
-7 -3 8 0
7 3 8 0
5 -9 -10 0
-5 9 -10 0
5 9 10 0
-5 -9 10 0
-11 -8 0
-11 -10 0
8 10 11 0
11 8 -12 0
-11 -8 -12 0
11 -8 12 0
-11 8 12 0
8 -13 -14 0
-8 13 -14 0
8 13 14 0
-8 -13 14 0
-12 14 -15 0
12 -14 -15 0
-12 -14 15 0
12 14 15 0
6 15 -16 0
-6 -15 -16 0
6 -15 16 0
-6 15 16 0
19 17 0
19 18 0
-17 -18 -19 0
-20 9 0
-20 -7 0
-9 7 20 0
-20 21 0
20 21 0
-11 21 -22 0
11 -21 -22 0
-11 -21 22 0
11 21 22 0
19 -22 -23 0
-19 22 -23 0
19 22 23 0
-19 -22 23 0
24 -13 0
24 -4 0
13 4 -24 0
-20 24 -25 0
20 -24 -25 0
-20 -24 25 0
20 24 25 0
-26 23 0
-26 -25 0
-23 25 26 0
-4 25 -27 0
4 -25 -27 0
-4 -25 27 0
4 25 27 0
-5 27 -28 0
5 -27 -28 0
-5 -27 28 0
5 27 28 0
26 28 -29 0
-26 -28 -29 0
26 -28 29 0
-26 28 29 0
-16 29 -30 0
16 -29 -30 0
-16 -29 30 0
16 29 30 0
32 -7 0
32 31 0
7 -31 -32 0
33 -2 0
33 -4 0
2 4 -33 0
-3 24 -34 0
3 -24 -34 0
-3 -24 34 0
3 24 34 0
22 34 -35 0
-22 -34 -35 0
22 -34 35 0
-22 34 35 0
36 -33 0
36 35 0
33 -35 -36 0
-32 -36 -37 0
32 36 -37 0
-32 36 37 0
32 -36 37 0
-5 -2 -38 0
5 2 -38 0
-5 2 38 0
5 -2 38 0
-39 -37 0
-39 -38 0
37 38 39 0
19 -17 -41 0
-19 17 -41 0
19 17 41 0
-19 -17 41 0
-40 -41 -42 0
40 41 -42 0
-40 41 42 0
40 -41 42 0
43 39 0
43 42 0
-39 -42 -43 0
-44 -20 0
-44 -27 0
20 27 44 0
-45 -8 0
-45 9 0
8 -9 45 0
46 45 0
46 3 0
-45 -3 -46 0
-47 -44 0
-47 46 0
44 -46 47 0
-43 -47 -48 0
43 47 -48 0
-43 47 48 0
43 -47 48 0
-49 -10 0
-49 -7 0
10 7 49 0
-50 -20 0
-50 2 0
20 -2 50 0
51 -50 0
51 -23 0
50 23 -51 0
-52 -49 0
-52 -51 0
49 51 52 0
-48 -52 -53 0
48 52 -53 0
-48 52 53 0
48 -52 53 0
30 -53 -54 0
-30 53 -54 0
30 53 54 0
-30 -53 54 0
8 24 7 -31 0
26 9 -34 -8 0
-21 -35 0
41 50 20 -15 2 0
-5 -24 -51 0
33 16 0
-24 -30 43 -48 9 -33 0
-12 37 0
-49 -22 -11 13 -1 -4 0
31 2 54 -8 0
-48 27 0
48 32 0
-44 -33 0
-40 34 0
-5 15 -53 -51 0
-25 -5 -49 0
-17 16 52 -11 0
45 -1 39 0
-13 -26 -33 -54 8 0
-31 -27 23 -52 0
53 50 4 22 -17 0
-47 18 17 0
51 -43 -28 22 9 20 0
2 28 -34 23 37 22 0
35 -10 0
-9 16 -25 1 42 -12 0
50 38 18 28 -20 0
-22 -48 -1 -7 -32 -47 0
16 39 -49 -45 0
-4 37 30 27 19 38 0
-13 17 0
-12 -17 31 42 22 0
-32 17 -34 -13 0
-4 -52 -43 20 0
10 36 37 50 22 0
-30 6 19 -44 0
9 -38 54 22 0
-27 25 -33 44 0
28 -18 23 25 -49 0
30 53 7 0
-53 7 12 13 38 0
4 38 22 0
48 -37 -20 0
3 53 -1 -32 -52 -18 0
-16 -13 -26 -25 0
-14 -30 24 44 31 0
54 0
